<number of tasks>
50

<cycle time>
1000

<order strength>
0.597


<task times>
1 55
2 185
3 59
4 168
5 87
6 56
7 95
8 330
9 68
10 53
11 136
12 134
13 25
14 93
15 158
16 114
17 46
18 72
19 95
20 134
21 78
22 199
23 96
24 81
25 127
26 164
27 305
28 255
29 116
30 75
31 117
32 159
33 226
34 111
35 340
36 148
37 51
38 185
39 314
40 126
41 191
42 191
43 189
44 99
45 109
46 140
47 155
48 242
49 87
50 119

<precedence relations>
1,5
1,12
2,6
2,7
2,8
3,6
3,7
3,8
4,6
4,7
4,8
5,9
6,10
6,11
6,12
7,12
8,12
9,15
10,13
11,14
12,16
13,17
14,20
15,19
16,18
16,20
16,21
16,22
17,24
18,25
19,26
20,26
20,27
21,23
21,26
21,27
22,26
22,27
23,28
24,29
25,29
26,29
26,30
26,31
26,32
27,29
27,30
27,31
27,32
28,33
29,34
29,36
30,34
30,35
30,36
31,34
31,35
32,40
33,37
34,38
34,40
34,42
35,39
36,41
37,43
38,44
39,45
40,46
41,50
42,46
42,47
43,49
44,49
45,48
46,50
47,50

<end>
